Route #1: 44 67 88 40
Route #2: 93 75
Route #3: 3 77 63
Route #4: 69 16 55 76
Route #5: 8 17
Route #6: 50 91 52
Route #7: 28 42 78 65 25
Route #8: 32 33 53 73 95 24
Route #9: 21 56 94 80
Route #10: 14 49 6 37 87
Route #11: 57 72 36 29 43 45 2 7
Route #12: 83 51 81
Route #13: 58 12 5
Route #14: 15 22 41 20
Route #15: 59 60 82
Route #16: 89 98 99 62 71
Route #17: 39 10 18
Route #18: 68 90 84 66
Route #19: 30 85 11 79
Route #20: 23 61 100
Route #21: 35 46 31
Route #22: 34 64 96 48 26 47 38
Route #23: 19 97 27
Route #24: 54 70 1
Route #25: 4 13 74
Route #26: 86 9 92
Cost 27591.0000
Time 16.0003